(set-info :origin "SVCOMP13 benchmarks generated by Arie Gurfinkel")
(set-info :status sat)
(set-logic HORN)
(declare-fun cp-rel-entry () Bool)
(declare-fun cp-rel-bb1.i.i35.i.i () Bool)
(declare-fun cp-rel-bb1.i.i (Real Real Real) Bool)
(assert |cp-rel-entry|)
(assert (forall ((?A Real) (?B Real) (?C Real) (?D Bool) )(let (($x481584 (and |cp-rel-entry| (<= ?C 0.0) (>= ?B 1.0) (<= ?B 1.0) (>= ?A 0.0) (<= ?A 0.0) (= ?D true) (>= ?C 0.0))))
(=> $x481584 (|cp-rel-bb1.i.i| ?A ?B ?C))))
)
(assert (forall ((?A Real) (?B Real) (?C Real) (?D Real) (?E Real) (?F Real) (?G Bool) (?H Bool) (?I Bool) (?J Bool) (?K Bool) (?L Bool) (?M Real) (?N Real) (?O Bool) (?P Bool) (?Q Bool) (?R Bool) (?S Bool) (?T Bool) (?U Real) (?V Real) (?W Bool) (?X Bool) (?Y Bool) (?Z Bool) (?A1 Bool) (?B1 Bool) (?C1 Bool) (?D1 Bool) (?E1 Bool) (?F1 Bool) (?G1 Bool) (?H1 Real) (?I1 Real) (?J1 Real) (?K1 Bool) (?L1 Real) (?M1 Bool) (?N1 Bool) (?O1 Real) (?P1 Bool) (?Q1 Real) (?R1 Real) (?S1 Bool) (?T1 Bool) (?U1 Bool) (?V1 Real) (?W1 Bool) (?X1 Bool) (?Y1 Bool) (?Z1 Bool) )(let (($x866386 (|cp-rel-bb1.i.i| ?D ?E ?F)))
(let (($x113697 (= ?N1 (or ?Z1 ?Y1))))
(let (($x623796 (or (not ?G) (and ?H ?I (not ?J)))))
(let (($x444315 (or (not ?G) ?I)))
(let (($x212825 (not ?K)))
(let (($x300331 (or $x212825 (and ?G ?L (<= ?M ?N) (>= ?M ?N)) (and ?H ?O ?J (<= ?M ?B) (>= ?M ?B)))))
(let (($x582988 (or $x212825 (and ?L (not ?O)) (and ?O (not ?L)))))
(let (($x296633 (or (not ?P) (and ?K ?Q (not ?R)))))
(let (($x210083 (or (not ?P) ?Q)))
(let (($x117838 (not ?S)))
(let (($x293443 (or $x117838 (and ?P ?T (<= ?U ?V) (>= ?U ?V)) (and ?K ?W ?R (<= ?U ?A) (>= ?U ?A)))))
(let (($x608542 (or $x117838 (and ?T (not ?W)) (and ?W (not ?T)))))
(let (($x227626 (or (not ?X) (and ?S ?Y ?Z))))
(let (($x303830 (or (not ?X) ?Y)))
(let (($x143756 (or (not ?A1) (and ?S ?B1 (not ?Z)))))
(let (($x628530 (or (not ?A1) ?B1)))
(let (($x850276 (or (not ?C1) (and ?A1 ?D1 ?E1))))
(let (($x442100 (or (not ?C1) ?D1)))
(let (($x799503 (>= ?H1 ?L1)))
(let (($x90185 (<= ?H1 ?L1)))
(let (($x861600 (and ?A1 ?M1 (not ?E1) $x90185 $x799503 (<= ?I1 0.0) (>= ?I1 0.0))))
(let (($x86256 (and ?X ?G1 (<= ?H1 ?M) (>= ?H1 ?M) (<= ?I1 ?J1) (>= ?I1 ?J1))))
(let (($x413768 (not ?F1)))
(let (($x428047 (or $x413768 $x86256 (and ?C1 ?K1 $x90185 $x799503 (<= ?I1 ?C) (>= ?I1 ?C)) $x861600)))
(let (($x848594 (or $x413768 (and ?G1 (not ?K1) (not ?M1)) (and ?K1 (not ?G1) (not ?M1)) (and ?M1 (not ?G1) (not ?K1)))))
(let (($x590032 (= ?F1 true)))
(let (($x405816 (= ?N1 true)))
(let (($x628228 (= ?J (= ?O1 0.0))))
(let (($x457733 (= ?Q1 (ite ?P1 1.0 0.0))))
(let (($x289603 (= ?R (= ?R1 0.0))))
(let (($x95655 (= ?V (ite ?S1 1.0 0.0))))
(let (($x368938 (= ?T1 (not (<= ?M 1.0)))))
(let (($x550 (= ?U1 (not (<= ?M 0.0)))))
(let (($x240254 (= ?V1 (+ (~ 1.0) ?M))))
(let (($x515350 (= ?L1 (ite ?U1 ?V1 ?M))))
(let (($x580049 (= ?W1 (= ?U 0.0))))
(let (($x538979 (= ?X1 (= ?L1 0.0))))
(let (($x158160 (= ?E1 (and ?W1 ?X1))))
(let (($x326013 (= ?Y1 (not (= ?H1 0.0)))))
(let (($x535270 (= ?Z1 (= ?I1 0.0))))
(let (($x212751 (and (|cp-rel-bb1.i.i| ?A ?B ?C) $x535270 $x326013 $x158160 $x538979 $x580049 $x515350 $x240254 $x550 (= ?J1 (ite ?T1 1.0 ?C)) $x368938 (= ?Z (= ?C 0.0)) $x95655 (= ?S1 (= ?A 0.0)) $x289603 (= ?N (+ ?Q1 ?B)) $x457733 (= ?P1 (not (<= 2.0 ?B))) $x628228 (>= ?F ?I1) (<= ?F ?I1) (>= ?E ?H1) (<= ?E ?H1) (>= ?D ?U) (<= ?D ?U) $x405816 $x590032 $x848594 $x428047 $x442100 $x850276 $x628530 $x143756 $x303830 $x227626 $x608542 $x293443 $x210083 $x296633 $x582988 $x300331 $x444315 $x623796 $x113697)))
(=> $x212751 $x866386)))))))))))))))))))))))))))))))))))))))))))
)
(assert (forall ((?A Real) (?B Real) (?C Real) (?D Bool) (?E Bool) (?F Bool) (?G Bool) (?H Bool) (?I Bool) (?J Real) (?K Real) (?L Bool) (?M Bool) (?N Bool) (?O Bool) (?P Bool) (?Q Bool) (?R Real) (?S Real) (?T Bool) (?U Bool) (?V Bool) (?W Bool) (?X Bool) (?Y Bool) (?Z Bool) (?A1 Bool) (?B1 Bool) (?C1 Bool) (?D1 Bool) (?E1 Real) (?F1 Real) (?G1 Real) (?H1 Bool) (?I1 Real) (?J1 Bool) (?K1 Bool) (?L1 Real) (?M1 Bool) (?N1 Real) (?O1 Real) (?P1 Bool) (?Q1 Bool) (?R1 Bool) (?S1 Real) (?T1 Bool) (?U1 Bool) (?V1 Bool) (?W1 Bool) )(let (($x113697 (= ?K1 (or ?W1 ?V1))))
(let (($x623796 (or (not ?D) (and ?E ?F (not ?G)))))
(let (($x444315 (or (not ?D) ?F)))
(let (($x212825 (not ?H)))
(let (($x402181 (or $x212825 (and ?D ?I (<= ?J ?K) (>= ?J ?K)) (and ?E ?L ?G (<= ?J ?B) (>= ?J ?B)))))
(let (($x582988 (or $x212825 (and ?I (not ?L)) (and ?L (not ?I)))))
(let (($x296633 (or (not ?M) (and ?H ?N (not ?O)))))
(let (($x210083 (or (not ?M) ?N)))
(let (($x117838 (not ?P)))
(let (($x153297 (or $x117838 (and ?M ?Q (<= ?R ?S) (>= ?R ?S)) (and ?H ?T ?O (<= ?R ?A) (>= ?R ?A)))))
(let (($x608542 (or $x117838 (and ?Q (not ?T)) (and ?T (not ?Q)))))
(let (($x227626 (or (not ?U) (and ?P ?V ?W))))
(let (($x303830 (or (not ?U) ?V)))
(let (($x143756 (or (not ?X) (and ?P ?Y (not ?W)))))
(let (($x628530 (or (not ?X) ?Y)))
(let (($x850276 (or (not ?Z) (and ?X ?A1 ?B1))))
(let (($x442100 (or (not ?Z) ?A1)))
(let (($x799503 (>= ?E1 ?I1)))
(let (($x90185 (<= ?E1 ?I1)))
(let (($x861600 (and ?X ?J1 (not ?B1) $x90185 $x799503 (<= ?F1 0.0) (>= ?F1 0.0))))
(let (($x86256 (and ?U ?D1 (<= ?E1 ?J) (>= ?E1 ?J) (<= ?F1 ?G1) (>= ?F1 ?G1))))
(let (($x413768 (not ?C1)))
(let (($x463487 (or $x413768 $x86256 (and ?Z ?H1 $x90185 $x799503 (<= ?F1 ?C) (>= ?F1 ?C)) $x861600)))
(let (($x848594 (or $x413768 (and ?D1 (not ?H1) (not ?J1)) (and ?H1 (not ?D1) (not ?J1)) (and ?J1 (not ?D1) (not ?H1)))))
(let (($x590032 (= ?C1 true)))
(let (($x628228 (= ?G (= ?L1 0.0))))
(let (($x457733 (= ?N1 (ite ?M1 1.0 0.0))))
(let (($x289603 (= ?O (= ?O1 0.0))))
(let (($x95655 (= ?S (ite ?P1 1.0 0.0))))
(let (($x368938 (= ?Q1 (not (<= ?J 1.0)))))
(let (($x550 (= ?R1 (not (<= ?J 0.0)))))
(let (($x240254 (= ?S1 (+ (~ 1.0) ?J))))
(let (($x515350 (= ?I1 (ite ?R1 ?S1 ?J))))
(let (($x580049 (= ?T1 (= ?R 0.0))))
(let (($x538979 (= ?U1 (= ?I1 0.0))))
(let (($x158160 (= ?B1 (and ?T1 ?U1))))
(let (($x326013 (= ?V1 (not (= ?E1 0.0)))))
(let (($x535270 (= ?W1 (= ?F1 0.0))))
(let (($x866386 (|cp-rel-bb1.i.i| ?A ?B ?C)))
(let (($x215694 (and $x866386 $x535270 $x326013 $x158160 $x538979 $x580049 $x515350 $x240254 $x550 (= ?G1 (ite ?Q1 1.0 ?C)) $x368938 (= ?W (= ?C 0.0)) $x95655 (= ?P1 (= ?A 0.0)) $x289603 (= ?K (+ ?N1 ?B)) $x457733 (= ?M1 (not (<= 2.0 ?B))) $x628228 (not (= ?K1 true)) $x590032 $x848594 $x463487 $x442100 $x850276 $x628530 $x143756 $x303830 $x227626 $x608542 $x153297 $x210083 $x296633 $x582988 $x402181 $x444315 $x623796 $x113697)))
(=> $x215694 |cp-rel-bb1.i.i35.i.i|))))))))))))))))))))))))))))))))))))))))))
)
(assert (not cp-rel-bb1.i.i35.i.i))
(check-sat)
